Version identifier: 22.1.0.0 | 2022-03-09 | 1a383f8ce
CPXPARAM_Read_DataCheck                          1
CPXPARAM_Threads                                 1
CPXPARAM_TimeLimit                               3600
Tried aggregator 2 times.
MIP Presolve eliminated 833 rows and 108 columns.
MIP Presolve modified 3217 coefficients.
Aggregator did 17 substitutions.
Reduced MIP has 581 rows, 115 columns, and 2828 nonzeros.
Reduced MIP has 71 binaries, 0 generals, 0 SOSs, and 0 indicators.
Presolve time = 0.01 sec. (6.25 ticks)
Found incumbent of value 59.464963 after 0.02 sec. (8.41 ticks)
Probing fixed 6 vars, tightened 15 bounds.
Probing time = 0.00 sec. (1.20 ticks)
Tried aggregator 1 time.
Detecting symmetries...
MIP Presolve eliminated 22 rows and 6 columns.
MIP Presolve modified 109 coefficients.
Reduced MIP has 559 rows, 109 columns, and 2706 nonzeros.
Reduced MIP has 65 binaries, 0 generals, 0 SOSs, and 0 indicators.
Presolve time = 0.00 sec. (1.85 ticks)
Probing time = 0.00 sec. (1.16 ticks)
Clique table members: 437.
MIP emphasis: balance optimality and feasibility.
MIP search method: dynamic search.
Parallel mode: none, using 1 thread.
Root relaxation solution time = 0.00 sec. (1.52 ticks)

        Nodes                                         Cuts/
   Node  Left     Objective  IInf  Best Integer    Best Bound    ItCnt     Gap

*     0+    0                           59.4650       53.1059            10.69%
      0     0       53.1059    27       59.4650       53.1059       64   10.69%
      0     0       53.1059    25       59.4650      Cuts: 53      151   10.69%
      0     0       53.1059    22       59.4650     Cuts: 168      326   10.69%
      0     0       53.1109    25       59.4650     Cuts: 131      443   10.69%
      0     0       53.1166    44       59.4650      Cuts: 62      484   10.68%
*     0+    0                           53.7952       53.1166             1.26%
      0     0       53.1279    18       53.7952      Cuts: 28      510    1.24%
Detecting symmetries...

Repeating presolve.
Tried aggregator 2 times.
MIP Presolve eliminated 348 rows and 47 columns.
MIP Presolve modified 257 coefficients.
Aggregator did 1 substitutions.
Reduced MIP has 210 rows, 61 columns, and 810 nonzeros.
Reduced MIP has 27 binaries, 0 generals, 0 SOSs, and 0 indicators.
Presolve time = 0.00 sec. (1.03 ticks)
Probing fixed 0 vars, tightened 9 bounds.
Probing time = 0.00 sec. (0.25 ticks)
Tried aggregator 1 time.
Detecting symmetries...
MIP Presolve eliminated 4 rows and 0 columns.
MIP Presolve modified 89 coefficients.
Reduced MIP has 206 rows, 61 columns, and 796 nonzeros.
Reduced MIP has 27 binaries, 0 generals, 0 SOSs, and 0 indicators.
Presolve time = 0.00 sec. (0.55 ticks)
Represolve time = 0.01 sec. (2.28 ticks)
Probing time = 0.00 sec. (0.23 ticks)
Clique table members: 106.
MIP emphasis: balance optimality and feasibility.
MIP search method: dynamic search.
Parallel mode: none, using 1 thread.
Root relaxation solution time = 0.00 sec. (1.58 ticks)

        Nodes                                         Cuts/
   Node  Left     Objective  IInf  Best Integer    Best Bound    ItCnt     Gap

*     0+    0                           53.7952       53.1279             1.24%
      0     0       53.1310    15       53.7952       53.1310      621    1.23%
      0     0       53.1344     9       53.7952      Cuts: 30      634    1.23%
      0     0       53.1346    12       53.7952      Cuts: 15      639    1.23%
      0     0       53.1434    12       53.7952    MIRcuts: 4      648    1.21%
      0     0       53.1438    12       53.7952      Cuts: 10      653    1.21%
Detecting symmetries...
      0     2       53.1438    12       53.7952       53.1586      653    1.18%
Elapsed time = 0.15 sec. (72.24 ticks, tree = 0.01 MB, solutions = 2)

GUB cover cuts applied:  2
Clique cuts applied:  1
Implied bound cuts applied:  11
Flow cuts applied:  2
Mixed integer rounding cuts applied:  27

Root node processing (before b&c):
  Real time             =    0.15 sec. (72.24 ticks)
Sequential b&c:
  Real time             =    0.01 sec. (4.51 ticks)
                          ------------
Total (root+branch&cut) =    0.16 sec. (76.75 ticks)
